p cnf 441 1
441 0
w 1 0.670101
w 2 1 0
w 2 -1 1
w 3 2 1
w 3 -2 0
w 4 3 0
w 4 -3 1
w 5 4 1
w 5 -4 0
w 6 5 1
w 6 -5 0
w 7 6 0
w 7 -6 1
w 8 7 0
w 8 -7 1
w 9 8 0
w 9 -8 1
w 10 9 0.956852
w 10 -9 0.0635902
w 11 10 1
w 11 -10 0
w 12 11 0.861211
w 12 -11 0.43552
w 13 12 0.765477
w 13 -12 0.461756
w 14 13 1
w 14 -13 0
w 15 14 0.688349
w 15 -14 0.611215
w 16 15 1
w 16 -15 0
w 17 16 1
w 17 -16 0
w 18 17 0
w 18 -17 1
w 19 18 0
w 19 -18 1
w 20 19 1
w 20 -19 0
w 21 20 1
w 21 -20 0
w 22 1 1
w 22 -1 0
w 23 22 2 0
w 23 22 -2 1
w 23 -22 2 1
w 23 -22 -2 0
w 24 23 3 0.541822
w 24 23 -3 0.326256
w 24 -23 3 0.401
w 24 -23 -3 0.310586
w 25 24 4 0
w 25 24 -4 1
w 25 -24 4 0
w 25 -24 -4 1
w 26 25 5 1
w 26 25 -5 1
w 26 -25 5 1
w 26 -25 -5 0
w 27 26 6 1
w 27 26 -6 0
w 27 -26 6 1
w 27 -26 -6 1
w 28 27 7 0
w 28 27 -7 0
w 28 -27 7 1
w 28 -27 -7 1
w 29 28 8 1
w 29 28 -8 1
w 29 -28 8 1
w 29 -28 -8 0
w 30 29 9 1
w 30 29 -9 0
w 30 -29 9 0
w 30 -29 -9 0
w 31 30 10 1
w 31 30 -10 0
w 31 -30 10 1
w 31 -30 -10 0
w 32 31 11 0
w 32 31 -11 1
w 32 -31 11 0
w 32 -31 -11 1
w 33 32 12 1
w 33 32 -12 0
w 33 -32 12 0
w 33 -32 -12 0
w 34 33 13 0
w 34 33 -13 0
w 34 -33 13 0
w 34 -33 -13 1
w 35 34 14 0.954473
w 35 34 -14 0.470019
w 35 -34 14 0.822051
w 35 -34 -14 0.228292
w 36 35 15 1
w 36 35 -15 1
w 36 -35 15 0
w 36 -35 -15 1
w 37 36 16 0
w 37 36 -16 1
w 37 -36 16 1
w 37 -36 -16 0
w 38 37 17 0.753848
w 38 37 -17 0.190852
w 38 -37 17 0.0808729
w 38 -37 -17 0.661841
w 39 38 18 0.435646
w 39 38 -18 0.867267
w 39 -38 18 0.00646503
w 39 -38 -18 0.617338
w 40 39 19 0
w 40 39 -19 1
w 40 -39 19 0
w 40 -39 -19 0
w 41 40 20 1
w 41 40 -20 0
w 41 -40 20 0
w 41 -40 -20 0
w 42 41 21 1
w 42 41 -21 1
w 42 -41 21 0
w 42 -41 -21 1
w 43 22 0.184652
w 43 -22 0.759288
w 44 43 23 0
w 44 43 -23 1
w 44 -43 23 0
w 44 -43 -23 0
w 45 44 24 1
w 45 44 -24 0
w 45 -44 24 1
w 45 -44 -24 1
w 46 45 25 1
w 46 45 -25 1
w 46 -45 25 0
w 46 -45 -25 1
w 47 46 26 0
w 47 46 -26 1
w 47 -46 26 0
w 47 -46 -26 1
w 48 47 27 0.497135
w 48 47 -27 0.873136
w 48 -47 27 0.155736
w 48 -47 -27 0.752831
w 49 48 28 1
w 49 48 -28 1
w 49 -48 28 0
w 49 -48 -28 0
w 50 49 29 1
w 50 49 -29 0
w 50 -49 29 0
w 50 -49 -29 1
w 51 50 30 0
w 51 50 -30 0
w 51 -50 30 1
w 51 -50 -30 1
w 52 51 31 1
w 52 51 -31 1
w 52 -51 31 0
w 52 -51 -31 1
w 53 52 32 0.247094
w 53 52 -32 0.852072
w 53 -52 32 0.518112
w 53 -52 -32 0.668381
w 54 53 33 1
w 54 53 -33 1
w 54 -53 33 1
w 54 -53 -33 0
w 55 54 34 0.93907
w 55 54 -34 0.575934
w 55 -54 34 0.790776
w 55 -54 -34 0.562676
w 56 55 35 0.422493
w 56 55 -35 0.72641
w 56 -55 35 0.548886
w 56 -55 -35 0.655106
w 57 56 36 1
w 57 56 -36 1
w 57 -56 36 0
w 57 -56 -36 0
w 58 57 37 1
w 58 57 -37 1
w 58 -57 37 1
w 58 -57 -37 0
w 59 58 38 0
w 59 58 -38 1
w 59 -58 38 0
w 59 -58 -38 1
w 60 59 39 0.467993
w 60 59 -39 0.0243903
w 60 -59 39 0.994852
w 60 -59 -39 0.712637
w 61 60 40 0
w 61 60 -40 0
w 61 -60 40 1
w 61 -60 -40 1
w 62 61 41 0
w 62 61 -41 1
w 62 -61 41 1
w 62 -61 -41 1
w 63 62 42 1
w 63 62 -42 1
w 63 -62 42 0
w 63 -62 -42 1
w 64 43 0.556817
w 64 -43 0.631277
w 65 64 44 0
w 65 64 -44 1
w 65 -64 44 1
w 65 -64 -44 1
w 66 65 45 0.226402
w 66 65 -45 0.46097
w 66 -65 45 0.440168
w 66 -65 -45 0.250793
w 67 66 46 0
w 67 66 -46 0
w 67 -66 46 1
w 67 -66 -46 1
w 68 67 47 0.0729942
w 68 67 -47 0.0188953
w 68 -67 47 0.748262
w 68 -67 -47 0.199462
w 69 68 48 0.233992
w 69 68 -48 0.981035
w 69 -68 48 0.0845998
w 69 -68 -48 0.527474
w 70 69 49 0
w 70 69 -49 1
w 70 -69 49 0
w 70 -69 -49 0
w 71 70 50 0
w 71 70 -50 1
w 71 -70 50 1
w 71 -70 -50 1
w 72 71 51 0.345244
w 72 71 -51 0.927258
w 72 -71 51 0.291691
w 72 -71 -51 0.596037
w 73 72 52 1
w 73 72 -52 0
w 73 -72 52 1
w 73 -72 -52 0
w 74 73 53 0
w 74 73 -53 0
w 74 -73 53 0
w 74 -73 -53 1
w 75 74 54 0
w 75 74 -54 1
w 75 -74 54 1
w 75 -74 -54 0
w 76 75 55 1
w 76 75 -55 0
w 76 -75 55 1
w 76 -75 -55 1
w 77 76 56 1
w 77 76 -56 0
w 77 -76 56 1
w 77 -76 -56 0
w 78 77 57 0.69082
w 78 77 -57 0.711529
w 78 -77 57 0.0589195
w 78 -77 -57 0.286857
w 79 78 58 1
w 79 78 -58 0
w 79 -78 58 0
w 79 -78 -58 1
w 80 79 59 0.671803
w 80 79 -59 0.0203299
w 80 -79 59 0.675481
w 80 -79 -59 0.696359
w 81 80 60 0
w 81 80 -60 1
w 81 -80 60 0
w 81 -80 -60 1
w 82 81 61 1
w 82 81 -61 0
w 82 -81 61 0
w 82 -81 -61 0
w 83 82 62 0
w 83 82 -62 1
w 83 -82 62 1
w 83 -82 -62 1
w 84 83 63 0
w 84 83 -63 0
w 84 -83 63 1
w 84 -83 -63 1
w 85 64 0
w 85 -64 1
w 86 85 65 0.837776
w 86 85 -65 0.917891
w 86 -85 65 0.535406
w 86 -85 -65 0.614401
w 87 86 66 0
w 87 86 -66 1
w 87 -86 66 1
w 87 -86 -66 1
w 88 87 67 0
w 88 87 -67 1
w 88 -87 67 0
w 88 -87 -67 0
w 89 88 68 0
w 89 88 -68 1
w 89 -88 68 0
w 89 -88 -68 0
w 90 89 69 1
w 90 89 -69 1
w 90 -89 69 0
w 90 -89 -69 1
w 91 90 70 1
w 91 90 -70 0
w 91 -90 70 1
w 91 -90 -70 0
w 92 91 71 0.877937
w 92 91 -71 0.400762
w 92 -91 71 0.507186
w 92 -91 -71 0.433673
w 93 92 72 1
w 93 92 -72 1
w 93 -92 72 1
w 93 -92 -72 0
w 94 93 73 1
w 94 93 -73 0
w 94 -93 73 0
w 94 -93 -73 0
w 95 94 74 0
w 95 94 -74 0
w 95 -94 74 0
w 95 -94 -74 1
w 96 95 75 0.489017
w 96 95 -75 0.369171
w 96 -95 75 0.624954
w 96 -95 -75 0.417437
w 97 96 76 0.573539
w 97 96 -76 0.417039
w 97 -96 76 0.271251
w 97 -96 -76 0.3599
w 98 97 77 1
w 98 97 -77 1
w 98 -97 77 1
w 98 -97 -77 0
w 99 98 78 1
w 99 98 -78 1
w 99 -98 78 0
w 99 -98 -78 1
w 100 99 79 1
w 100 99 -79 1
w 100 -99 79 1
w 100 -99 -79 0
w 101 100 80 1
w 101 100 -80 1
w 101 -100 80 0
w 101 -100 -80 0
w 102 101 81 0.508005
w 102 101 -81 0.312565
w 102 -101 81 0.359627
w 102 -101 -81 0.436725
w 103 102 82 0.776666
w 103 102 -82 0.707976
w 103 -102 82 0.246004
w 103 -102 -82 0.111198
w 104 103 83 0.0066661
w 104 103 -83 0.952916
w 104 -103 83 0.440024
w 104 -103 -83 0.457972
w 105 104 84 0
w 105 104 -84 0
w 105 -104 84 0
w 105 -104 -84 1
w 106 85 1
w 106 -85 0
w 107 106 86 0
w 107 106 -86 1
w 107 -106 86 1
w 107 -106 -86 1
w 108 107 87 0
w 108 107 -87 1
w 108 -107 87 1
w 108 -107 -87 1
w 109 108 88 0.418135
w 109 108 -88 0.447015
w 109 -108 88 0.638261
w 109 -108 -88 0.194801
w 110 109 89 0
w 110 109 -89 1
w 110 -109 89 0
w 110 -109 -89 1
w 111 110 90 0
w 111 110 -90 0
w 111 -110 90 1
w 111 -110 -90 0
w 112 111 91 1
w 112 111 -91 1
w 112 -111 91 0
w 112 -111 -91 1
w 113 112 92 1
w 113 112 -92 1
w 113 -112 92 1
w 113 -112 -92 0
w 114 113 93 0.920514
w 114 113 -93 0.520579
w 114 -113 93 0.224045
w 114 -113 -93 0.979022
w 115 114 94 0
w 115 114 -94 0
w 115 -114 94 1
w 115 -114 -94 1
w 116 115 95 1
w 116 115 -95 0
w 116 -115 95 1
w 116 -115 -95 1
w 117 116 96 1
w 117 116 -96 1
w 117 -116 96 1
w 117 -116 -96 0
w 118 117 97 0.854512
w 118 117 -97 0.703511
w 118 -117 97 0.126638
w 118 -117 -97 0.934505
w 119 118 98 0.781481
w 119 118 -98 0.966979
w 119 -118 98 0.648756
w 119 -118 -98 0.799775
w 120 119 99 0.56927
w 120 119 -99 0.320355
w 120 -119 99 0.975477
w 120 -119 -99 0.548292
w 121 120 100 0.951679
w 121 120 -100 0.945448
w 121 -120 100 0.829109
w 121 -120 -100 0.566142
w 122 121 101 1
w 122 121 -101 1
w 122 -121 101 1
w 122 -121 -101 0
w 123 122 102 0
w 123 122 -102 1
w 123 -122 102 0
w 123 -122 -102 1
w 124 123 103 0
w 124 123 -103 0
w 124 -123 103 0
w 124 -123 -103 1
w 125 124 104 0
w 125 124 -104 1
w 125 -124 104 0
w 125 -124 -104 1
w 126 125 105 0
w 126 125 -105 0
w 126 -125 105 1
w 126 -125 -105 1
w 127 106 0
w 127 -106 1
w 128 127 107 1
w 128 127 -107 0
w 128 -127 107 0
w 128 -127 -107 1
w 129 128 108 0
w 129 128 -108 1
w 129 -128 108 1
w 129 -128 -108 0
w 130 129 109 0.460504
w 130 129 -109 0.309114
w 130 -129 109 0.43456
w 130 -129 -109 0.474338
w 131 130 110 1
w 131 130 -110 0
w 131 -130 110 0
w 131 -130 -110 1
w 132 131 111 0.279951
w 132 131 -111 0.621758
w 132 -131 111 0.964248
w 132 -131 -111 0.966538
w 133 132 112 1
w 133 132 -112 1
w 133 -132 112 1
w 133 -132 -112 0
w 134 133 113 0.834346
w 134 133 -113 0.346072
w 134 -133 113 0.518921
w 134 -133 -113 0.430963
w 135 134 114 0
w 135 134 -114 0
w 135 -134 114 1
w 135 -134 -114 1
w 136 135 115 0
w 136 135 -115 1
w 136 -135 115 1
w 136 -135 -115 1
w 137 136 116 0.805391
w 137 136 -116 0.561778
w 137 -136 116 0.0509813
w 137 -136 -116 0.19853
w 138 137 117 0.804569
w 138 137 -117 0.478481
w 138 -137 117 0.453407
w 138 -137 -117 0.768817
w 139 138 118 1
w 139 138 -118 1
w 139 -138 118 0
w 139 -138 -118 0
w 140 139 119 1
w 140 139 -119 0
w 140 -139 119 0
w 140 -139 -119 0
w 141 140 120 1
w 141 140 -120 0
w 141 -140 120 1
w 141 -140 -120 0
w 142 141 121 0.548585
w 142 141 -121 0.73446
w 142 -141 121 0.246667
w 142 -141 -121 0.0661685
w 143 142 122 0
w 143 142 -122 0
w 143 -142 122 0
w 143 -142 -122 1
w 144 143 123 0.961516
w 144 143 -123 0.548571
w 144 -143 123 0.25811
w 144 -143 -123 0.730334
w 145 144 124 0.436593
w 145 144 -124 0.24333
w 145 -144 124 0.41209
w 145 -144 -124 0.418948
w 146 145 125 0.662236
w 146 145 -125 0.235649
w 146 -145 125 0.760198
w 146 -145 -125 0.431303
w 147 146 126 1
w 147 146 -126 0
w 147 -146 126 1
w 147 -146 -126 1
w 148 127 1
w 148 -127 0
w 149 148 128 0
w 149 148 -128 1
w 149 -148 128 0
w 149 -148 -128 0
w 150 149 129 0
w 150 149 -129 0
w 150 -149 129 1
w 150 -149 -129 0
w 151 150 130 0
w 151 150 -130 0
w 151 -150 130 1
w 151 -150 -130 1
w 152 151 131 0.675019
w 152 151 -131 0.334081
w 152 -151 131 0.378164
w 152 -151 -131 0.503747
w 153 152 132 0.613812
w 153 152 -132 0.263945
w 153 -152 132 0.427621
w 153 -152 -132 0.0971249
w 154 153 133 0
w 154 153 -133 1
w 154 -153 133 1
w 154 -153 -133 0
w 155 154 134 1
w 155 154 -134 0
w 155 -154 134 0
w 155 -154 -134 0
w 156 155 135 0
w 156 155 -135 0
w 156 -155 135 0
w 156 -155 -135 1
w 157 156 136 0
w 157 156 -136 1
w 157 -156 136 1
w 157 -156 -136 1
w 158 157 137 1
w 158 157 -137 0
w 158 -157 137 0
w 158 -157 -137 1
w 159 158 138 1
w 159 158 -138 0
w 159 -158 138 1
w 159 -158 -138 1
w 160 159 139 0
w 160 159 -139 1
w 160 -159 139 0
w 160 -159 -139 0
w 161 160 140 0
w 161 160 -140 1
w 161 -160 140 1
w 161 -160 -140 0
w 162 161 141 1
w 162 161 -141 0
w 162 -161 141 0
w 162 -161 -141 0
w 163 162 142 1
w 163 162 -142 0
w 163 -162 142 1
w 163 -162 -142 0
w 164 163 143 1
w 164 163 -143 1
w 164 -163 143 1
w 164 -163 -143 0
w 165 164 144 1
w 165 164 -144 0
w 165 -164 144 0
w 165 -164 -144 0
w 166 165 145 1
w 166 165 -145 0
w 166 -165 145 0
w 166 -165 -145 0
w 167 166 146 0.600909
w 167 166 -146 0.352179
w 167 -166 146 0.421784
w 167 -166 -146 0.0418412
w 168 167 147 1
w 168 167 -147 0
w 168 -167 147 0
w 168 -167 -147 1
w 169 148 0
w 169 -148 1
w 170 169 149 0
w 170 169 -149 1
w 170 -169 149 1
w 170 -169 -149 1
w 171 170 150 1
w 171 170 -150 0
w 171 -170 150 1
w 171 -170 -150 0
w 172 171 151 1
w 172 171 -151 0
w 172 -171 151 1
w 172 -171 -151 1
w 173 172 152 1
w 173 172 -152 0
w 173 -172 152 1
w 173 -172 -152 1
w 174 173 153 0
w 174 173 -153 1
w 174 -173 153 0
w 174 -173 -153 1
w 175 174 154 1
w 175 174 -154 0
w 175 -174 154 1
w 175 -174 -154 1
w 176 175 155 0
w 176 175 -155 1
w 176 -175 155 1
w 176 -175 -155 1
w 177 176 156 0
w 177 176 -156 1
w 177 -176 156 0
w 177 -176 -156 0
w 178 177 157 1
w 178 177 -157 0
w 178 -177 157 0
w 178 -177 -157 0
w 179 178 158 0.770893
w 179 178 -158 0.191014
w 179 -178 158 0.119769
w 179 -178 -158 0.229278
w 180 179 159 0
w 180 179 -159 1
w 180 -179 159 1
w 180 -179 -159 0
w 181 180 160 0
w 181 180 -160 1
w 181 -180 160 0
w 181 -180 -160 0
w 182 181 161 0
w 182 181 -161 0
w 182 -181 161 0
w 182 -181 -161 1
w 183 182 162 1
w 183 182 -162 1
w 183 -182 162 0
w 183 -182 -162 0
w 184 183 163 1
w 184 183 -163 1
w 184 -183 163 1
w 184 -183 -163 0
w 185 184 164 1
w 185 184 -164 0
w 185 -184 164 1
w 185 -184 -164 1
w 186 185 165 0.0772762
w 186 185 -165 0.188742
w 186 -185 165 0.0415502
w 186 -185 -165 0.424596
w 187 186 166 0
w 187 186 -166 0
w 187 -186 166 1
w 187 -186 -166 0
w 188 187 167 0
w 188 187 -167 0
w 188 -187 167 0
w 188 -187 -167 1
w 189 188 168 1
w 189 188 -168 0
w 189 -188 168 1
w 189 -188 -168 1
w 190 169 1
w 190 -169 0
w 191 190 170 1
w 191 190 -170 1
w 191 -190 170 1
w 191 -190 -170 0
w 192 191 171 0
w 192 191 -171 1
w 192 -191 171 0
w 192 -191 -171 0
w 193 192 172 1
w 193 192 -172 0
w 193 -192 172 0
w 193 -192 -172 0
w 194 193 173 0
w 194 193 -173 0
w 194 -193 173 1
w 194 -193 -173 1
w 195 194 174 0.344763
w 195 194 -174 0.664665
w 195 -194 174 0.123845
w 195 -194 -174 0.181984
w 196 195 175 0
w 196 195 -175 0
w 196 -195 175 0
w 196 -195 -175 1
w 197 196 176 1
w 197 196 -176 0
w 197 -196 176 0
w 197 -196 -176 0
w 198 197 177 0
w 198 197 -177 1
w 198 -197 177 1
w 198 -197 -177 1
w 199 198 178 1
w 199 198 -178 1
w 199 -198 178 0
w 199 -198 -178 1
w 200 199 179 0.543044
w 200 199 -179 0.894379
w 200 -199 179 0.595073
w 200 -199 -179 0.719934
w 201 200 180 1
w 201 200 -180 1
w 201 -200 180 1
w 201 -200 -180 0
w 202 201 181 0
w 202 201 -181 0
w 202 -201 181 1
w 202 -201 -181 1
w 203 202 182 1
w 203 202 -182 0
w 203 -202 182 0
w 203 -202 -182 0
w 204 203 183 1
w 204 203 -183 0
w 204 -203 183 1
w 204 -203 -183 0
w 205 204 184 1
w 205 204 -184 1
w 205 -204 184 0
w 205 -204 -184 0
w 206 205 185 1
w 206 205 -185 0
w 206 -205 185 1
w 206 -205 -185 1
w 207 206 186 0.300478
w 207 206 -186 0.892908
w 207 -206 186 0.030688
w 207 -206 -186 0.814791
w 208 207 187 1
w 208 207 -187 0
w 208 -207 187 1
w 208 -207 -187 0
w 209 208 188 0.946041
w 209 208 -188 0.737811
w 209 -208 188 0.467589
w 209 -208 -188 0.382389
w 210 209 189 1
w 210 209 -189 1
w 210 -209 189 1
w 210 -209 -189 0
w 211 190 1
w 211 -190 0
w 212 211 191 0
w 212 211 -191 1
w 212 -211 191 0
w 212 -211 -191 0
w 213 212 192 0.103803
w 213 212 -192 0.160404
w 213 -212 192 0.678682
w 213 -212 -192 0.902347
w 214 213 193 0
w 214 213 -193 1
w 214 -213 193 1
w 214 -213 -193 1
w 215 214 194 0
w 215 214 -194 1
w 215 -214 194 0
w 215 -214 -194 1
w 216 215 195 1
w 216 215 -195 1
w 216 -215 195 1
w 216 -215 -195 0
w 217 216 196 1
w 217 216 -196 0
w 217 -216 196 1
w 217 -216 -196 0
w 218 217 197 1
w 218 217 -197 0
w 218 -217 197 0
w 218 -217 -197 1
w 219 218 198 0
w 219 218 -198 1
w 219 -218 198 0
w 219 -218 -198 0
w 220 219 199 0.195298
w 220 219 -199 0.0873914
w 220 -219 199 0.699272
w 220 -219 -199 0.442771
w 221 220 200 0.194654
w 221 220 -200 0.395986
w 221 -220 200 0.224662
w 221 -220 -200 0.636077
w 222 221 201 1
w 222 221 -201 1
w 222 -221 201 0
w 222 -221 -201 1
w 223 222 202 0.0828386
w 223 222 -202 0.73993
w 223 -222 202 0.967858
w 223 -222 -202 0.228
w 224 223 203 1
w 224 223 -203 0
w 224 -223 203 1
w 224 -223 -203 0
w 225 224 204 0.739332
w 225 224 -204 0.449163
w 225 -224 204 0.269685
w 225 -224 -204 0.0015953
w 226 225 205 0
w 226 225 -205 0
w 226 -225 205 1
w 226 -225 -205 0
w 227 226 206 1
w 227 226 -206 1
w 227 -226 206 1
w 227 -226 -206 0
w 228 227 207 0
w 228 227 -207 0
w 228 -227 207 0
w 228 -227 -207 1
w 229 228 208 1
w 229 228 -208 0
w 229 -228 208 0
w 229 -228 -208 0
w 230 229 209 0
w 230 229 -209 1
w 230 -229 209 1
w 230 -229 -209 0
w 231 230 210 0
w 231 230 -210 1
w 231 -230 210 0
w 231 -230 -210 1
w 232 211 0
w 232 -211 1
w 233 232 212 1
w 233 232 -212 0
w 233 -232 212 1
w 233 -232 -212 0
w 234 233 213 0
w 234 233 -213 1
w 234 -233 213 1
w 234 -233 -213 0
w 235 234 214 1
w 235 234 -214 1
w 235 -234 214 0
w 235 -234 -214 1
w 236 235 215 0
w 236 235 -215 1
w 236 -235 215 1
w 236 -235 -215 1
w 237 236 216 1
w 237 236 -216 1
w 237 -236 216 0
w 237 -236 -216 0
w 238 237 217 1
w 238 237 -217 0
w 238 -237 217 0
w 238 -237 -217 0
w 239 238 218 0.622461
w 239 238 -218 0.478319
w 239 -238 218 0.0759976
w 239 -238 -218 0.989055
w 240 239 219 1
w 240 239 -219 1
w 240 -239 219 1
w 240 -239 -219 0
w 241 240 220 0.760245
w 241 240 -220 0.273353
w 241 -240 220 0.494718
w 241 -240 -220 0.159547
w 242 241 221 0
w 242 241 -221 0
w 242 -241 221 1
w 242 -241 -221 1
w 243 242 222 0
w 243 242 -222 0
w 243 -242 222 1
w 243 -242 -222 0
w 244 243 223 0
w 244 243 -223 1
w 244 -243 223 1
w 244 -243 -223 1
w 245 244 224 0
w 245 244 -224 1
w 245 -244 224 1
w 245 -244 -224 0
w 246 245 225 1
w 246 245 -225 0
w 246 -245 225 0
w 246 -245 -225 0
w 247 246 226 0.338446
w 247 246 -226 0.786582
w 247 -246 226 0.205856
w 247 -246 -226 0.833165
w 248 247 227 0.397551
w 248 247 -227 0.0370793
w 248 -247 227 0.683786
w 248 -247 -227 0.0557265
w 249 248 228 0
w 249 248 -228 1
w 249 -248 228 0
w 249 -248 -228 1
w 250 249 229 1
w 250 249 -229 0
w 250 -249 229 1
w 250 -249 -229 1
w 251 250 230 1
w 251 250 -230 1
w 251 -250 230 0
w 251 -250 -230 0
w 252 251 231 1
w 252 251 -231 1
w 252 -251 231 1
w 252 -251 -231 0
w 253 232 0.611717
w 253 -232 0.424261
w 254 253 233 0
w 254 253 -233 0
w 254 -253 233 1
w 254 -253 -233 0
w 255 254 234 0
w 255 254 -234 1
w 255 -254 234 1
w 255 -254 -234 0
w 256 255 235 1
w 256 255 -235 0
w 256 -255 235 1
w 256 -255 -235 1
w 257 256 236 0
w 257 256 -236 0
w 257 -256 236 1
w 257 -256 -236 1
w 258 257 237 1
w 258 257 -237 1
w 258 -257 237 0
w 258 -257 -237 1
w 259 258 238 0
w 259 258 -238 1
w 259 -258 238 0
w 259 -258 -238 0
w 260 259 239 0.492107
w 260 259 -239 0.663731
w 260 -259 239 0.25305
w 260 -259 -239 0.0201853
w 261 260 240 0.547554
w 261 260 -240 0.232049
w 261 -260 240 0.149706
w 261 -260 -240 0.0379413
w 262 261 241 1
w 262 261 -241 1
w 262 -261 241 1
w 262 -261 -241 0
w 263 262 242 1
w 263 262 -242 1
w 263 -262 242 0
w 263 -262 -242 0
w 264 263 243 1
w 264 263 -243 0
w 264 -263 243 0
w 264 -263 -243 1
w 265 264 244 0
w 265 264 -244 1
w 265 -264 244 0
w 265 -264 -244 0
w 266 265 245 0.663231
w 266 265 -245 0.091625
w 266 -265 245 0.59355
w 266 -265 -245 0.916281
w 267 266 246 1
w 267 266 -246 1
w 267 -266 246 0
w 267 -266 -246 1
w 268 267 247 1
w 268 267 -247 0
w 268 -267 247 1
w 268 -267 -247 1
w 269 268 248 0
w 269 268 -248 0
w 269 -268 248 1
w 269 -268 -248 1
w 270 269 249 0.925401
w 270 269 -249 0.310436
w 270 -269 249 0.545361
w 270 -269 -249 0.774619
w 271 270 250 1
w 271 270 -250 1
w 271 -270 250 0
w 271 -270 -250 0
w 272 271 251 0.737515
w 272 271 -251 0.925865
w 272 -271 251 0.381649
w 272 -271 -251 0.653796
w 273 272 252 0
w 273 272 -252 0
w 273 -272 252 1
w 273 -272 -252 1
w 274 253 0
w 274 -253 1
w 275 274 254 0
w 275 274 -254 1
w 275 -274 254 0
w 275 -274 -254 0
w 276 275 255 0
w 276 275 -255 1
w 276 -275 255 1
w 276 -275 -255 1
w 277 276 256 1
w 277 276 -256 0
w 277 -276 256 0
w 277 -276 -256 0
w 278 277 257 0
w 278 277 -257 0
w 278 -277 257 0
w 278 -277 -257 1
w 279 278 258 1
w 279 278 -258 0
w 279 -278 258 1
w 279 -278 -258 1
w 280 279 259 0
w 280 279 -259 1
w 280 -279 259 0
w 280 -279 -259 0
w 281 280 260 0
w 281 280 -260 0
w 281 -280 260 1
w 281 -280 -260 0
w 282 281 261 0
w 282 281 -261 0
w 282 -281 261 1
w 282 -281 -261 1
w 283 282 262 0.488449
w 283 282 -262 0.448487
w 283 -282 262 0.159033
w 283 -282 -262 0.121071
w 284 283 263 0.403725
w 284 283 -263 0.827979
w 284 -283 263 0.0825562
w 284 -283 -263 0.436517
w 285 284 264 0
w 285 284 -264 1
w 285 -284 264 0
w 285 -284 -264 1
w 286 285 265 1
w 286 285 -265 1
w 286 -285 265 0
w 286 -285 -265 1
w 287 286 266 0.971482
w 287 286 -266 0.841181
w 287 -286 266 0.98553
w 287 -286 -266 0.985906
w 288 287 267 1
w 288 287 -267 1
w 288 -287 267 0
w 288 -287 -267 0
w 289 288 268 0.249066
w 289 288 -268 0.0834799
w 289 -288 268 0.381151
w 289 -288 -268 0.4081
w 290 289 269 0
w 290 289 -269 0
w 290 -289 269 1
w 290 -289 -269 0
w 291 290 270 1
w 291 290 -270 0
w 291 -290 270 1
w 291 -290 -270 0
w 292 291 271 0.218751
w 292 291 -271 0.262021
w 292 -291 271 0.0144605
w 292 -291 -271 0.0828647
w 293 292 272 0
w 293 292 -272 0
w 293 -292 272 1
w 293 -292 -272 1
w 294 293 273 1
w 294 293 -273 1
w 294 -293 273 0
w 294 -293 -273 0
w 295 274 0.622285
w 295 -274 0.566059
w 296 295 275 0.00343643
w 296 295 -275 0.974159
w 296 -295 275 0.0698765
w 296 -295 -275 0.232989
w 297 296 276 0.102406
w 297 296 -276 0.545098
w 297 -296 276 0.0343255
w 297 -296 -276 0.407338
w 298 297 277 0
w 298 297 -277 0
w 298 -297 277 0
w 298 -297 -277 1
w 299 298 278 0
w 299 298 -278 1
w 299 -298 278 1
w 299 -298 -278 0
w 300 299 279 0
w 300 299 -279 0
w 300 -299 279 0
w 300 -299 -279 1
w 301 300 280 0
w 301 300 -280 1
w 301 -300 280 0
w 301 -300 -280 1
w 302 301 281 1
w 302 301 -281 0
w 302 -301 281 1
w 302 -301 -281 1
w 303 302 282 0
w 303 302 -282 0
w 303 -302 282 1
w 303 -302 -282 1
w 304 303 283 0
w 304 303 -283 1
w 304 -303 283 1
w 304 -303 -283 0
w 305 304 284 1
w 305 304 -284 0
w 305 -304 284 0
w 305 -304 -284 0
w 306 305 285 0.482484
w 306 305 -285 0.255901
w 306 -305 285 0.737194
w 306 -305 -285 0.0123218
w 307 306 286 0
w 307 306 -286 0
w 307 -306 286 1
w 307 -306 -286 0
w 308 307 287 1
w 308 307 -287 0
w 308 -307 287 1
w 308 -307 -287 0
w 309 308 288 0.996877
w 309 308 -288 0.927047
w 309 -308 288 0.798008
w 309 -308 -288 0.620145
w 310 309 289 0.0438589
w 310 309 -289 0.343195
w 310 -309 289 0.203989
w 310 -309 -289 0.372599
w 311 310 290 1
w 311 310 -290 0
w 311 -310 290 1
w 311 -310 -290 1
w 312 311 291 0.237029
w 312 311 -291 0.00446009
w 312 -311 291 0.730118
w 312 -311 -291 0.249351
w 313 312 292 1
w 313 312 -292 1
w 313 -312 292 0
w 313 -312 -292 1
w 314 313 293 1
w 314 313 -293 1
w 314 -313 293 0
w 314 -313 -293 1
w 315 314 294 0
w 315 314 -294 1
w 315 -314 294 1
w 315 -314 -294 1
w 316 295 0
w 316 -295 1
w 317 316 296 1
w 317 316 -296 0
w 317 -316 296 1
w 317 -316 -296 1
w 318 317 297 0
w 318 317 -297 0
w 318 -317 297 1
w 318 -317 -297 1
w 319 318 298 0
w 319 318 -298 1
w 319 -318 298 1
w 319 -318 -298 1
w 320 319 299 1
w 320 319 -299 1
w 320 -319 299 1
w 320 -319 -299 0
w 321 320 300 1
w 321 320 -300 1
w 321 -320 300 1
w 321 -320 -300 0
w 322 321 301 0
w 322 321 -301 1
w 322 -321 301 0
w 322 -321 -301 1
w 323 322 302 0
w 323 322 -302 1
w 323 -322 302 0
w 323 -322 -302 0
w 324 323 303 1
w 324 323 -303 0
w 324 -323 303 0
w 324 -323 -303 1
w 325 324 304 0.925348
w 325 324 -304 0.537602
w 325 -324 304 0.449481
w 325 -324 -304 0.819993
w 326 325 305 1
w 326 325 -305 0
w 326 -325 305 0
w 326 -325 -305 0
w 327 326 306 0
w 327 326 -306 1
w 327 -326 306 1
w 327 -326 -306 1
w 328 327 307 1
w 328 327 -307 0
w 328 -327 307 1
w 328 -327 -307 1
w 329 328 308 0.0845026
w 329 328 -308 0.751942
w 329 -328 308 0.933401
w 329 -328 -308 0.858506
w 330 329 309 0.382918
w 330 329 -309 0.315054
w 330 -329 309 0.25567
w 330 -329 -309 0.0681208
w 331 330 310 0
w 331 330 -310 1
w 331 -330 310 0
w 331 -330 -310 1
w 332 331 311 0.414232
w 332 331 -311 0.0852461
w 332 -331 311 0.543773
w 332 -331 -311 0.779277
w 333 332 312 0
w 333 332 -312 0
w 333 -332 312 0
w 333 -332 -312 1
w 334 333 313 0
w 334 333 -313 1
w 334 -333 313 1
w 334 -333 -313 1
w 335 334 314 1
w 335 334 -314 1
w 335 -334 314 0
w 335 -334 -314 1
w 336 335 315 0.913824
w 336 335 -315 0.0798095
w 336 -335 315 0.229878
w 336 -335 -315 0.169493
w 337 316 1
w 337 -316 0
w 338 337 317 0
w 338 337 -317 1
w 338 -337 317 0
w 338 -337 -317 1
w 339 338 318 0
w 339 338 -318 1
w 339 -338 318 0
w 339 -338 -318 1
w 340 339 319 0
w 340 339 -319 0
w 340 -339 319 1
w 340 -339 -319 0
w 341 340 320 0.337321
w 341 340 -320 0.112265
w 341 -340 320 0.0540522
w 341 -340 -320 0.100811
w 342 341 321 0
w 342 341 -321 0
w 342 -341 321 0
w 342 -341 -321 1
w 343 342 322 0.313283
w 343 342 -322 0.142228
w 343 -342 322 0.0254427
w 343 -342 -322 0.990231
w 344 343 323 1
w 344 343 -323 1
w 344 -343 323 0
w 344 -343 -323 1
w 345 344 324 0.620337
w 345 344 -324 0.582838
w 345 -344 324 0.946527
w 345 -344 -324 0.957408
w 346 345 325 0.0202316
w 346 345 -325 0.53568
w 346 -345 325 0.329532
w 346 -345 -325 0.160683
w 347 346 326 0
w 347 346 -326 0
w 347 -346 326 1
w 347 -346 -326 1
w 348 347 327 1
w 348 347 -327 1
w 348 -347 327 1
w 348 -347 -327 0
w 349 348 328 1
w 349 348 -328 0
w 349 -348 328 0
w 349 -348 -328 1
w 350 349 329 0.635164
w 350 349 -329 0.480302
w 350 -349 329 0.92351
w 350 -349 -329 0.756866
w 351 350 330 0
w 351 350 -330 0
w 351 -350 330 0
w 351 -350 -330 1
w 352 351 331 1
w 352 351 -331 0
w 352 -351 331 1
w 352 -351 -331 0
w 353 352 332 0.207106
w 353 352 -332 0.571922
w 353 -352 332 0.104253
w 353 -352 -332 0.597973
w 354 353 333 1
w 354 353 -333 0
w 354 -353 333 1
w 354 -353 -333 0
w 355 354 334 0
w 355 354 -334 0
w 355 -354 334 1
w 355 -354 -334 0
w 356 355 335 0
w 356 355 -335 1
w 356 -355 335 1
w 356 -355 -335 1
w 357 356 336 1
w 357 356 -336 0
w 357 -356 336 1
w 357 -356 -336 0
w 358 337 0.792082
w 358 -337 0.888948
w 359 358 338 0.697152
w 359 358 -338 0.720253
w 359 -358 338 0.997395
w 359 -358 -338 0.269074
w 360 359 339 0.595368
w 360 359 -339 0.60866
w 360 -359 339 0.37029
w 360 -359 -339 0.64312
w 361 360 340 0
w 361 360 -340 1
w 361 -360 340 1
w 361 -360 -340 0
w 362 361 341 1
w 362 361 -341 1
w 362 -361 341 0
w 362 -361 -341 1
w 363 362 342 1
w 363 362 -342 1
w 363 -362 342 1
w 363 -362 -342 0
w 364 363 343 0.739282
w 364 363 -343 0.842485
w 364 -363 343 0.739339
w 364 -363 -343 0.628229
w 365 364 344 1
w 365 364 -344 1
w 365 -364 344 1
w 365 -364 -344 0
w 366 365 345 1
w 366 365 -345 0
w 366 -365 345 0
w 366 -365 -345 0
w 367 366 346 0.984286
w 367 366 -346 0.982043
w 367 -366 346 0.689284
w 367 -366 -346 0.33423
w 368 367 347 1
w 368 367 -347 0
w 368 -367 347 0
w 368 -367 -347 0
w 369 368 348 0
w 369 368 -348 1
w 369 -368 348 0
w 369 -368 -348 1
w 370 369 349 0.40455
w 370 369 -349 0.432653
w 370 -369 349 0.597875
w 370 -369 -349 0.143888
w 371 370 350 0
w 371 370 -350 1
w 371 -370 350 0
w 371 -370 -350 0
w 372 371 351 0
w 372 371 -351 1
w 372 -371 351 1
w 372 -371 -351 0
w 373 372 352 0.428007
w 373 372 -352 0.109918
w 373 -372 352 0.937056
w 373 -372 -352 0.117291
w 374 373 353 1
w 374 373 -353 0
w 374 -373 353 0
w 374 -373 -353 0
w 375 374 354 0.592287
w 375 374 -354 0.459298
w 375 -374 354 0.812877
w 375 -374 -354 0.0495795
w 376 375 355 0
w 376 375 -355 1
w 376 -375 355 1
w 376 -375 -355 1
w 377 376 356 0
w 377 376 -356 1
w 377 -376 356 0
w 377 -376 -356 0
w 378 377 357 0
w 378 377 -357 1
w 378 -377 357 0
w 378 -377 -357 0
w 379 358 1
w 379 -358 0
w 380 379 359 0.236033
w 380 379 -359 0.609806
w 380 -379 359 0.317623
w 380 -379 -359 0.303526
w 381 380 360 0
w 381 380 -360 1
w 381 -380 360 0
w 381 -380 -360 1
w 382 381 361 1
w 382 381 -361 0
w 382 -381 361 0
w 382 -381 -361 1
w 383 382 362 1
w 383 382 -362 0
w 383 -382 362 0
w 383 -382 -362 0
w 384 383 363 1
w 384 383 -363 0
w 384 -383 363 0
w 384 -383 -363 0
w 385 384 364 0
w 385 384 -364 1
w 385 -384 364 1
w 385 -384 -364 0
w 386 385 365 1
w 386 385 -365 0
w 386 -385 365 0
w 386 -385 -365 0
w 387 386 366 1
w 387 386 -366 1
w 387 -386 366 1
w 387 -386 -366 0
w 388 387 367 0.300631
w 388 387 -367 0.196775
w 388 -387 367 0.145528
w 388 -387 -367 0.0883307
w 389 388 368 0.0228738
w 389 388 -368 0.522235
w 389 -388 368 0.836042
w 389 -388 -368 0.0786157
w 390 389 369 1
w 390 389 -369 1
w 390 -389 369 0
w 390 -389 -369 1
w 391 390 370 0
w 391 390 -370 1
w 391 -390 370 0
w 391 -390 -370 0
w 392 391 371 0.876538
w 392 391 -371 0.262606
w 392 -391 371 0.728197
w 392 -391 -371 0.14192
w 393 392 372 0
w 393 392 -372 1
w 393 -392 372 1
w 393 -392 -372 0
w 394 393 373 1
w 394 393 -373 0
w 394 -393 373 0
w 394 -393 -373 1
w 395 394 374 0
w 395 394 -374 1
w 395 -394 374 0
w 395 -394 -374 1
w 396 395 375 1
w 396 395 -375 0
w 396 -395 375 1
w 396 -395 -375 0
w 397 396 376 1
w 397 396 -376 0
w 397 -396 376 1
w 397 -396 -376 1
w 398 397 377 0
w 398 397 -377 0
w 398 -397 377 1
w 398 -397 -377 1
w 399 398 378 0
w 399 398 -378 1
w 399 -398 378 1
w 399 -398 -378 1
w 400 379 0.54647
w 400 -379 0.166035
w 401 400 380 0
w 401 400 -380 1
w 401 -400 380 1
w 401 -400 -380 0
w 402 401 381 0
w 402 401 -381 1
w 402 -401 381 1
w 402 -401 -381 1
w 403 402 382 0
w 403 402 -382 0
w 403 -402 382 0
w 403 -402 -382 1
w 404 403 383 0.566269
w 404 403 -383 0.886181
w 404 -403 383 0.405277
w 404 -403 -383 0.852095
w 405 404 384 1
w 405 404 -384 1
w 405 -404 384 0
w 405 -404 -384 1
w 406 405 385 0.643314
w 406 405 -385 0.384966
w 406 -405 385 0.416928
w 406 -405 -385 0.809349
w 407 406 386 0.158049
w 407 406 -386 0.77375
w 407 -406 386 0.61103
w 407 -406 -386 0.116693
w 408 407 387 0
w 408 407 -387 1
w 408 -407 387 1
w 408 -407 -387 0
w 409 408 388 1
w 409 408 -388 0
w 409 -408 388 1
w 409 -408 -388 1
w 410 409 389 1
w 410 409 -389 0
w 410 -409 389 0
w 410 -409 -389 1
w 411 410 390 1
w 411 410 -390 0
w 411 -410 390 1
w 411 -410 -390 1
w 412 411 391 1
w 412 411 -391 0
w 412 -411 391 1
w 412 -411 -391 0
w 413 412 392 0
w 413 412 -392 1
w 413 -412 392 0
w 413 -412 -392 1
w 414 413 393 0
w 414 413 -393 1
w 414 -413 393 1
w 414 -413 -393 1
w 415 414 394 0
w 415 414 -394 0
w 415 -414 394 1
w 415 -414 -394 1
w 416 415 395 0.795488
w 416 415 -395 0.191673
w 416 -415 395 0.0669994
w 416 -415 -395 0.212206
w 417 416 396 1
w 417 416 -396 0
w 417 -416 396 1
w 417 -416 -396 0
w 418 417 397 1
w 418 417 -397 1
w 418 -417 397 1
w 418 -417 -397 0
w 419 418 398 0
w 419 418 -398 1
w 419 -418 398 0
w 419 -418 -398 1
w 420 419 399 0.897255
w 420 419 -399 0.100962
w 420 -419 399 0.690814
w 420 -419 -399 0.503856
w 421 400 0.395862
w 421 -400 0.631558
w 422 421 401 0
w 422 421 -401 1
w 422 -421 401 0
w 422 -421 -401 0
w 423 422 402 1
w 423 422 -402 1
w 423 -422 402 0
w 423 -422 -402 0
w 424 423 403 0.450894
w 424 423 -403 0.577295
w 424 -423 403 0.471644
w 424 -423 -403 0.339629
w 425 424 404 1
w 425 424 -404 1
w 425 -424 404 0
w 425 -424 -404 1
w 426 425 405 0
w 426 425 -405 0
w 426 -425 405 1
w 426 -425 -405 1
w 427 426 406 1
w 427 426 -406 1
w 427 -426 406 0
w 427 -426 -406 0
w 428 427 407 1
w 428 427 -407 1
w 428 -427 407 0
w 428 -427 -407 1
w 429 428 408 1
w 429 428 -408 0
w 429 -428 408 1
w 429 -428 -408 0
w 430 429 409 0.11659
w 430 429 -409 0.119473
w 430 -429 409 0.24896
w 430 -429 -409 0.456219
w 431 430 410 0
w 431 430 -410 0
w 431 -430 410 1
w 431 -430 -410 0
w 432 431 411 0
w 432 431 -411 0
w 432 -431 411 1
w 432 -431 -411 0
w 433 432 412 0
w 433 432 -412 1
w 433 -432 412 0
w 433 -432 -412 0
w 434 433 413 1
w 434 433 -413 0
w 434 -433 413 1
w 434 -433 -413 1
w 435 434 414 1
w 435 434 -414 1
w 435 -434 414 0
w 435 -434 -414 1
w 436 435 415 0.0778434
w 436 435 -415 0.97231
w 436 -435 415 0.24065
w 436 -435 -415 0.534062
w 437 436 416 1
w 437 436 -416 1
w 437 -436 416 0
w 437 -436 -416 1
w 438 437 417 0
w 438 437 -417 1
w 438 -437 417 0
w 438 -437 -417 1
w 439 438 418 0.429926
w 439 438 -418 0.584468
w 439 -438 418 0.631929
w 439 -438 -418 0.534704
w 440 439 419 0
w 440 439 -419 1
w 440 -439 419 0
w 440 -439 -419 0
w 441 440 420 1
w 441 440 -420 1
w 441 -440 420 1
w 441 -440 -420 0